# Tersoff potential for Pt system
# .....

dimension      3
boundary       p p p
units          real

atom_style      charge
read_data       dataPtbcc.in   ###Pt structures are specified here.

pair_style      tersoff  ### potential types are specified here.
pair_coeff      * * /tmp/Pt.tersoff Pt  ### potential 

neighbor        2 bin
neigh_modify    every 10 delay 0 check no

#fix            1 all nvt temp 0.01 0.01 25 iso 1.0 1.0 250
#fix             1 all qeq/reax 1 0.0 10.0 1e-6 param.qeq
minimize        1.0e-4  1.0e-6  100  1000
timestep        0.25

#dump           1 all atom 30 dump.reax.ab

run             100
